NAME: random-94-14964
TYPE: TSP
COMMENT: size=94 seed=14964
DIMENSION: 190
EDGE_WEIGHT_TYPE: EUC_2D
NODE_COORD_SECTION
+0 948 740
-0 948 740
+1 636 636
-1 575 166
+2 664 534
-2 674 576
+3 490 989
-3 515 770
+4 407 351
-4 921 968
+5 283 344
-5 465 167
+6 526 464
-6 164 97
+7 49 616
-7 74 229
+8 799 18
-8 782 795
+9 254 890
-9 793 942
+10 876 614
-10 841 273
+11 937 891
-11 995 738
+12 256 238
-12 521 736
+13 486 905
-13 680 683
+14 376 440
-14 485 310
+15 569 821
-15 161 358
+16 856 315
-16 474 333
+17 38 771
-17 948 728
+18 678 454
-18 91 693
+19 972 101
-19 135 241
+20 471 491
-20 17 570
+21 564 240
-21 868 271
+22 879 760
-22 849 371
+23 776 288
-23 213 251
+24 822 844
-24 822 711
+25 84 61
-25 485 996
+26 968 674
-26 99 90
+27 357 483
-27 564 225
+28 374 484
-28 690 72
+29 558 235
-29 134 871
+30 73 72
-30 148 959
+31 686 365
-31 934 190
+32 2 471
-32 104 81
+33 945 163
-33 257 197
+34 714 439
-34 302 73
+35 750 572
-35 98 196
+36 866 508
-36 26 465
+37 456 214
-37 887 965
+38 985 633
-38 937 820
+39 884 625
-39 26 465
+40 496 321
-40 957 753
+41 104 292
-41 926 741
+42 658 843
-42 803 772
+43 719 163
-43 855 258
+44 658 689
-44 379 897
+45 330 292
-45 273 769
+46 211 800
-46 801 293
+47 498 873
-47 819 715
+48 892 309
-48 930 477
+49 796 808
-49 178 548
+50 293 351
-50 715 937
+51 602 797
-51 150 206
+52 7 543
-52 129 256
+53 452 847
-53 639 328
+54 205 344
-54 551 105
+55 14 567
-55 529 239
+56 663 744
-56 359 802
+57 42 912
-57 429 94
+58 683 522
-58 334 408
+59 773 382
-59 624 769
+60 590 360
-60 808 494
+61 124 173
-61 14 306
+62 238 803
-62 440 621
+63 828 807
-63 492 686
+64 528 283
-64 947 644
+65 540 300
-65 818 239
+66 52 232
-66 656 475
+67 304 134
-67 132 287
+68 849 668
-68 717 758
+69 297 993
-69 513 966
+70 270 825
-70 166 997
+71 12 182
-71 545 481
+72 921 874
-72 911 436
+73 491 956
-73 643 708
+74 71 849
-74 515 540
+75 646 187
-75 674 558
+76 532 719
-76 468 550
+77 40 893
-77 503 28
+78 612 958
-78 941 631
+79 568 311
-79 878 712
+80 173 664
-80 686 708
+81 905 445
-81 309 308
+82 340 623
-82 965 192
+83 421 214
-83 825 259
+84 43 803
-84 856 955
+85 76 727
-85 190 750
+86 253 793
-86 229 668
+87 23 965
-87 446 184
+88 241 926
-88 242 202
+89 679 772
-89 174 979
+90 756 47
-90 347 65
+91 632 290
-91 225 464
+92 56 129
-92 877 399
+93 203 630
-93 277 510
+94 7 669
-94 731 792
PRECEDENCE_SECTION
+0 -0
+1 -1
+2 -2
+3 -3
+4 -4
+5 -5
+6 -6
+7 -7
+8 -8
+9 -9
+10 -10
+11 -11
+12 -12
+13 -13
+14 -14
+15 -15
+16 -16
+17 -17
+18 -18
+19 -19
+20 -20
+21 -21
+22 -22
+23 -23
+24 -24
+25 -25
+26 -26
+27 -27
+28 -28
+29 -29
+30 -30
+31 -31
+32 -32
+33 -33
+34 -34
+35 -35
+36 -36
+37 -37
+38 -38
+39 -39
+40 -40
+41 -41
+42 -42
+43 -43
+44 -44
+45 -45
+46 -46
+47 -47
+48 -48
+49 -49
+50 -50
+51 -51
+52 -52
+53 -53
+54 -54
+55 -55
+56 -56
+57 -57
+58 -58
+59 -59
+60 -60
+61 -61
+62 -62
+63 -63
+64 -64
+65 -65
+66 -66
+67 -67
+68 -68
+69 -69
+70 -70
+71 -71
+72 -72
+73 -73
+74 -74
+75 -75
+76 -76
+77 -77
+78 -78
+79 -79
+80 -80
+81 -81
+82 -82
+83 -83
+84 -84
+85 -85
+86 -86
+87 -87
+88 -88
+89 -89
+90 -90
+91 -91
+92 -92
+93 -93
+94 -94
EOF
